n=150;
k_min=3;
k_max=3;
M=[| 356, 489, 154
 | 370, 474, 155
 | 365, 475, 158
 | 373, 470, 156
 | 356, 486, 157
 | 346, 500, 153
 | 366, 475, 158
 | 358, 500, 141
 | 375, 464, 160
 | 368, 479, 152
 | 353, 478, 167
 | 365, 485, 148
 | 369, 472, 157
 | 366, 463, 169
 | 331, 500, 168
 | 333, 500, 166
 | 341, 500, 158
 | 357, 487, 154
 | 344, 500, 155
 | 356, 477, 166
 | 356, 500, 143
 | 359, 477, 163
 | 347, 500, 152
 | 373, 474, 151
 | 376, 470, 152
 | 374, 473, 151
 | 366, 485, 148
 | 357, 486, 156
 | 357, 486, 156
 | 372, 476, 150
 | 373, 476, 149
 | 359, 482, 158
 | 340, 500, 159
 | 334, 500, 165
 | 368, 479, 152
 | 360, 478, 160
 | 353, 475, 171
 | 368, 479, 152
 | 372, 461, 166
 | 358, 493, 147
 | 357, 485, 157
 | 366, 500, 133
 | 367, 469, 162
 | 369, 473, 157
 | 357, 500, 142
 | 372, 471, 155
 | 356, 478, 164
 | 368, 473, 157
 | 354, 478, 166
 | 360, 491, 148
 | 461, 189, 349
 | 468, 215, 315
 | 452, 178, 369
 | 463, 278, 257
 | 462, 203, 333
 | 471, 241, 287
 | 462, 208, 329
 | 500, 327, 172
 | 471, 200, 328
 | 459, 299, 241
 | 465, 321, 213
 | 460, 259, 280
 | 442, 281, 276
 | 487, 200, 312
 | 500, 298, 201
 | 500, 196, 303
 | 460, 249, 289
 | 467, 273, 259
 | 458, 223, 317
 | 465, 288, 245
 | 473, 206, 319
 | 453, 271, 275
 | 500, 164, 335
 | 473, 212, 314
 | 465, 233, 300
 | 486, 205, 307
 | 455, 186, 358
 | 463, 163, 372
 | 481, 220, 297
 | 462, 318, 218
 | 456, 300, 243
 | 452, 310, 237
 | 467, 282, 249
 | 500, 163, 336
 | 458, 258, 283
 | 459, 238, 302
 | 471, 186, 341
 | 452, 234, 312
 | 472, 275, 252
 | 474, 276, 248
 | 477, 252, 270
 | 500, 201, 298
 | 472, 271, 255
 | 488, 327, 184
 | 500, 250, 249
 | 470, 267, 261
 | 480, 259, 260
 | 469, 238, 291
 | 469, 353, 177
 | 484, 263, 252
 | 454, 143, 401
 | 477, 184, 337
 | 465, 81, 452
 | 478, 128, 392
 | 473, 113, 413
 | 419, 116, 463
 | 437, 275, 286
 | 424, 75, 500
 | 454, 118, 427
 | 450, 118, 430
 | 480, 152, 367
 | 500, 125, 374
 | 469, 116, 413
 | 500, 179, 320
 | 500, 168, 331
 | 474, 149, 376
 | 500, 106, 393
 | 405, 121, 472
 | 397, 102, 500
 | 464, 195, 339
 | 500, 83, 416
 | 472, 207, 319
 | 408, 118, 472
 | 500, 159, 340
 | 474, 111, 414
 | 444, 92, 463
 | 500, 172, 327
 | 500, 171, 328
 | 500, 106, 393
 | 434, 112, 453
 | 431, 90, 478
 | 398, 101, 500
 | 491, 114, 394
 | 500, 149, 350
 | 454, 164, 380
 | 433, 115, 450
 | 479, 139, 380
 | 487, 123, 388
 | 487, 191, 321
 | 468, 122, 408
 | 500, 98, 401
 | 500, 123, 376
 | 477, 184, 337
 | 480, 92, 426
 | 479, 116, 403
 | 500, 121, 378
 | 478, 166, 354
 | 500, 127, 372
 | 500, 138, 361
 | 475, 183, 340 |];
 P=[2, 2, 2, 2, 2, 2, 2, 2, 2, 2, 2, 2, 2, 2, 2, 2, 2, 2, 2, 2, 2, 2, 2, 2, 2, 2, 2, 2, 2, 2, 2, 2, 2, 2, 2, 2, 2, 2, 2, 2, 2, 2, 2, 2, 2, 2, 2, 2, 2, 2, 1, 1, 1, 1, 1, 1, 1, 1, 1, 1, 1, 1, 1, 1, 1, 1, 1, 1, 1, 1, 1, 1, 1, 1, 1, 1, 1, 1, 1, 1, 1, 1, 1, 1, 1, 1, 1, 1, 1, 1, 1, 1, 1, 1, 1, 1, 1, 1, 1, 1, 1, 1, 3, 1, 1, 3, 1, 3, 1, 3, 1, 1, 1, 1, 1, 1, 1, 3, 3, 1, 1, 1, 3, 1, 1, 3, 1, 1, 1, 3, 3, 3, 1, 1, 1, 3, 1, 1, 1, 1, 1, 1, 1, 1, 1, 1, 1, 1, 1, 1 ];